2	25
868	713	620	20	63	495	119	127	588	38	526	455	515	252	429	909	911	185	343	998	366	165	62	82	883	
640	927	474	1	206	195	208	927	452	835	186	710	716	201	387	129	787	108	26	219	26	539	763	197	826	
1336	1336	
